
===== New CPLEX run =====
Instance: /home/yorig/tuner/mpils-tests/instances/miplib/easy/lotsize.mps
Config: /scratch/yorig/mpils-results-grid-seconds-5-no-mip-start/easy/16proc/seed-3/4_lotsize_seed-3_20260502_223218/expansion/config_param_CPXPARAM_Simplex_DGradient_4_iter_3.prm
========================

Selected objective sense:  MINIMIZE
Selected objective  name:  R1921
Selected RHS        name:  B
Selected bound      name:  BOUND
Version identifier: 22.1.2.0 | 2024-11-26 | 0edbb82fd
CPXPARAM_Simplex_DGradient                       4
CPXPARAM_Threads                                 8
CPXPARAM_Parallel                                1
CPXPARAM_MIP_Cuts_Cliques                        2
CPXPARAM_MIP_Cuts_FlowCovers                     2
CPXPARAM_MIP_Cuts_Implied                        1
CPXPARAM_MIP_Limits_GomoryCand                   800
CPXPARAM_MIP_Cuts_Gomory                         -1
CPXPARAM_MIP_Cuts_PathCut                        1
CPXPARAM_MIP_Cuts_MIRCut                         2
CPXPARAM_MIP_Cuts_Disjunctive                    2
CPXPARAM_Emphasis_MIP                            1
CPXPARAM_MIP_Strategy_BBInterval                 4
CPXPARAM_TimeLimit                               5
Tried aggregator 1 time.
MIP Presolve eliminated 595 rows and 0 columns.
MIP Presolve added 1190 rows and 0 columns.
MIP Presolve modified 10 coefficients.
Reduced MIP has 2515 rows, 2985 columns, and 7755 nonzeros.
Reduced MIP has 1195 binaries, 0 generals, 0 SOSs, and 0 indicators.
Presolve time = 0.00 sec. (4.53 ticks)
Probing fixed 0 vars, tightened 5487 bounds.
Probing time = 0.01 sec. (18.38 ticks)
Tried aggregator 2 times.
Detecting symmetries...
MIP Presolve modified 1206 coefficients.
Aggregator did 10 substitutions.
Reduced MIP has 2505 rows, 2975 columns, and 7735 nonzeros.
Reduced MIP has 1195 binaries, 0 generals, 0 SOSs, and 0 indicators.
Presolve time = 0.00 sec. (6.66 ticks)
Probing fixed 0 vars, tightened 2401 bounds.
Probing time = 0.00 sec. (6.41 ticks)
Clique table members: 190.
MIP emphasis: integer feasibility.
MIP search method: dynamic search.
Parallel mode: deterministic, using up to 8 threads.
Root relaxation solution time = 0.01 sec. (9.16 ticks)

        Nodes                                         Cuts/
   Node  Left     Objective  IInf  Best Integer    Best Bound    ItCnt     Gap

      0     0   348385.3466   472                 348385.3466      882         
      0     0   583577.4049   435                   Cuts: 726     1816         
      0     0   818290.4051   692                   Cuts: 726     2641         
      0     0   947431.8881   684                   Cuts: 726     3323         
*     0+    0                       1.01740e+07   947431.8881            90.69%
*     0+    0                      7973370.0000   947431.8881            88.12%
Detecting symmetries...
      0     2   947431.8881   684  7973370.0000   947431.8881     3323   88.12%
Elapsed time = 0.42 sec. (577.86 ticks, tree = 0.02 MB, solutions = 2)
    444   322  1010310.8722   556  7973370.0000   948939.4997     7109   88.10%
   1093   940  1283933.7232   441  7973370.0000   948939.4997    13665   88.10%
   1475  1330  1027848.9260   686  7973370.0000   948939.4997    26017   88.10%

Performing restart 1

Repeating presolve.
Tried aggregator 1 time.
MIP Presolve modified 1264 coefficients.
Reduced MIP has 2505 rows, 2975 columns, and 7735 nonzeros.
Reduced MIP has 1195 binaries, 0 generals, 0 SOSs, and 0 indicators.
Presolve time = 0.00 sec. (3.87 ticks)
Tried aggregator 1 time.
MIP Presolve modified 1019 coefficients.
Reduced MIP has 2505 rows, 2975 columns, and 7735 nonzeros.
Reduced MIP has 1195 binaries, 0 generals, 0 SOSs, and 0 indicators.
Presolve time = 0.00 sec. (5.12 ticks)
Represolve time = 0.02 sec. (18.54 ticks)
   1739     0  1136084.9119   722  7973370.0000     Cuts: 726    35365   85.75%
   1739     0  1217886.2888   689  7973370.0000     Cuts: 726    36140   84.73%
   1739     0  1276313.7168   673  7973370.0000     Cuts: 726    36939   83.99%
   1739     2  1276313.7168   673  7973370.0000  1276313.7168    36939   83.99%
   1753    16  1291923.9183   605  7973370.0000  1276350.8793    37423   83.99%
   1769    32  1306107.8047   578  7973370.0000  1276350.8793    37862   83.99%
   1789    52  1322012.2035   532  7973370.0000  1276350.8793    38322   83.99%
   1806     8  1280359.1160   620  7973370.0000  1276350.8793    37141   83.99%
   1810    66  1333474.2776   748  7973370.0000  1276830.4149    40128   83.99%
   1930   112  1356586.7582   678  7973370.0000  1282307.7403    65379   83.92%
Elapsed time = 3.97 sec. (5295.96 ticks, tree = 0.10 MB, solutions = 2)
*  2367+  403                      4641872.0000  1282307.7403            72.38%
*  2370+  403                      3770841.0000  1282307.7403            65.99%
*  2376+  403                      3143077.0000  1282307.7403            59.20%
   2382   421  1387781.5774   569  3143077.0000  1282307.7403    88477   59.20%
*  2386+  403                      2950605.0000  1282307.7403            56.54%
*  2483+  575                      1769303.0000  1282307.7403            27.52%
*  2602+  672                      1602035.0000  1282307.7403            19.96%
*  2602+  672                      1591415.0000  1282307.7403            19.42%

Clique cuts applied:  0
Cover cuts applied:  25
Implied bound cuts applied:  17
Flow cuts applied:  828
Mixed integer rounding cuts applied:  1112
Flow path cuts applied:  45
Multi commodity flow cuts applied:  23
Lift and project cuts applied:  17
Disjunctive cuts applied:  0
Cone linearizations applied:  0

Root node processing (before b&c):
  Real time             =    0.42 sec. (575.61 ticks)
Parallel b&c, 8 threads:
  Real time             =    4.59 sec. (6206.73 ticks)
  Sync time (average)   =    0.25 sec.
  Wait time (average)   =    0.00 sec.
                          ------------
Total (root+branch&cut) =    5.00 sec. (6782.35 ticks)
Gap: 19.42%
Upper bound: 1.59141e+06
Lower bound: 1.28231e+06
End of CPLEX run. Time: 5.00582 seconds

===== New CPLEX run =====
Instance: /home/yorig/tuner/mpils-tests/instances/miplib/easy/lotsize.mps
Config: /scratch/yorig/mpils-results-grid-seconds-5-no-mip-start/easy/16proc/seed-3/4_lotsize_seed-3_20260502_223218/expansion/config_param_CPXPARAM_Simplex_DGradient_5_iter_3.prm
========================

Selected objective sense:  MINIMIZE
Selected objective  name:  R1921
Selected RHS        name:  B
Selected bound      name:  BOUND
Version identifier: 22.1.2.0 | 2024-11-26 | 0edbb82fd
CPXPARAM_Simplex_DGradient                       5
CPXPARAM_Threads                                 8
CPXPARAM_Parallel                                1
CPXPARAM_MIP_Cuts_Cliques                        2
CPXPARAM_MIP_Cuts_FlowCovers                     2
CPXPARAM_MIP_Cuts_Implied                        1
CPXPARAM_MIP_Limits_GomoryCand                   800
CPXPARAM_MIP_Cuts_Gomory                         -1
CPXPARAM_MIP_Cuts_PathCut                        1
CPXPARAM_MIP_Cuts_MIRCut                         2
CPXPARAM_MIP_Cuts_Disjunctive                    2
CPXPARAM_Emphasis_MIP                            1
CPXPARAM_MIP_Strategy_BBInterval                 4
CPXPARAM_TimeLimit                               5
Tried aggregator 1 time.
MIP Presolve eliminated 595 rows and 0 columns.
MIP Presolve added 1190 rows and 0 columns.
MIP Presolve modified 10 coefficients.
Reduced MIP has 2515 rows, 2985 columns, and 7755 nonzeros.
Reduced MIP has 1195 binaries, 0 generals, 0 SOSs, and 0 indicators.
Presolve time = 0.00 sec. (4.53 ticks)
Probing fixed 0 vars, tightened 5487 bounds.
Probing time = 0.01 sec. (18.38 ticks)
Tried aggregator 2 times.
Detecting symmetries...
MIP Presolve modified 1206 coefficients.
Aggregator did 10 substitutions.
Reduced MIP has 2505 rows, 2975 columns, and 7735 nonzeros.
Reduced MIP has 1195 binaries, 0 generals, 0 SOSs, and 0 indicators.
Presolve time = 0.00 sec. (6.66 ticks)
Probing fixed 0 vars, tightened 2401 bounds.
Probing time = 0.00 sec. (6.41 ticks)
Clique table members: 190.
MIP emphasis: integer feasibility.
MIP search method: dynamic search.
Parallel mode: deterministic, using up to 8 threads.
Root relaxation solution time = 0.01 sec. (7.45 ticks)

        Nodes                                         Cuts/
   Node  Left     Objective  IInf  Best Integer    Best Bound    ItCnt     Gap

      0     0   348385.3466   470                 348385.3466      857         
      0     0   590032.9053   437                   Cuts: 726     1969         
      0     0   812288.7986   692                   Cuts: 726     2840         
      0     0   936718.4474   698                   Cuts: 726     3587         
Detecting symmetries...
      0     2   936718.4474   698                 936718.4474     3587         
Elapsed time = 0.27 sec. (334.81 ticks, tree = 0.02 MB, solutions = 0)
    504   417   965501.8059   606                 938200.1635     8070         
   1194  1012  1181241.7007   423                 938200.1635    14165         
   2042  1787  1245016.2487   401                 938200.1635    23843         
   2468  2311  1667898.4881   196                 938200.1635    32358         
*  3125+ 2901                      2294520.0000   938200.1635            59.11%
   3233  3016  1319319.2210   398  2294520.0000   938200.1635    44787   59.11%
*  3291+ 3023                      2120650.0000   938200.1635            55.76%

Performing restart 1

Repeating presolve.
Tried aggregator 1 time.
MIP Presolve modified 1231 coefficients.
Reduced MIP has 2505 rows, 2975 columns, and 7735 nonzeros.
Reduced MIP has 1195 binaries, 0 generals, 0 SOSs, and 0 indicators.
Presolve time = 0.00 sec. (3.84 ticks)
Tried aggregator 1 time.
MIP Presolve modified 1024 coefficients.
Reduced MIP has 2505 rows, 2975 columns, and 7735 nonzeros.
Reduced MIP has 1195 binaries, 0 generals, 0 SOSs, and 0 indicators.
Presolve time = 0.00 sec. (5.12 ticks)
Represolve time = 0.02 sec. (18.74 ticks)
*  3302+    0                      1720655.0000  1001379.9770            41.80%
   3302     0  1103872.6557   734  1720655.0000     Cuts: 726    50898   35.85%
   3302     0  1179263.0635   747  1720655.0000     Cuts: 726    51824   31.46%
   3302     0  1249203.0732   726  1720655.0000     Cuts: 726    52919   27.40%
   3302     2  1249203.0732   726  1720655.0000  1249203.0732    52919   27.40%
   3322    22  1337770.1795   646  1720655.0000  1249226.0503    53563   27.40%
   3352    52  1392510.4729   584  1720655.0000  1249226.0503    54370   27.40%
   3378     7  1324934.0126   690  1720655.0000  1249226.0503    53092   27.40%
   3562   216  1530734.1204   370  1720655.0000  1318197.9438    87351   23.39%
Elapsed time = 4.05 sec. (4955.23 ticks, tree = 0.20 MB, solutions = 3)
*  4183+  722                      1668397.0000  1318197.9438            20.99%
*  4187+  722                      1657211.0000  1318197.9438            20.46%
*  4191+  722                      1656773.0000  1318197.9438            20.44%
*  4268+  703                      1653387.0000  1318197.9438            20.27%
*  4299+  820                      1644324.0000  1318197.9438            19.83%
*  4302+  820                      1626975.0000  1318197.9438            18.98%
*  4401+  856                      1617002.0000  1318197.9438            18.48%
*  4401+  856                      1611682.0000  1318197.9438            18.21%
   4427   892  1482513.0192   387  1611682.0000  1318197.9438   122086   18.21%

Clique cuts applied:  0
Cover cuts applied:  24
Implied bound cuts applied:  15
Flow cuts applied:  1559
Mixed integer rounding cuts applied:  2009
Flow path cuts applied:  54
Multi commodity flow cuts applied:  25
Lift and project cuts applied:  18
Disjunctive cuts applied:  0
Cone linearizations applied:  0

Root node processing (before b&c):
  Real time             =    0.26 sec. (332.74 ticks)
Parallel b&c, 8 threads:
  Real time             =    4.75 sec. (5938.33 ticks)
  Sync time (average)   =    0.30 sec.
  Wait time (average)   =    0.00 sec.
                          ------------
Total (root+branch&cut) =    5.01 sec. (6271.07 ticks)
Gap: 18.21%
Upper bound: 1.61168e+06
Lower bound: 1.3182e+06
End of CPLEX run. Time: 5.00989 seconds

===== New CPLEX run =====
Instance: /home/yorig/tuner/mpils-tests/instances/miplib/easy/lotsize.mps
Config: /scratch/yorig/mpils-results-grid-seconds-5-no-mip-start/easy/16proc/seed-3/4_lotsize_seed-3_20260502_223218/expansion/config_param_CPXPARAM_Simplex_PGradient_-1_iter_3.prm
========================

Selected objective sense:  MINIMIZE
Selected objective  name:  R1921
Selected RHS        name:  B
Selected bound      name:  BOUND
Version identifier: 22.1.2.0 | 2024-11-26 | 0edbb82fd
CPXPARAM_Simplex_PGradient                       -1
CPXPARAM_Threads                                 8
CPXPARAM_Parallel                                1
CPXPARAM_MIP_Cuts_Cliques                        2
CPXPARAM_MIP_Cuts_FlowCovers                     2
CPXPARAM_MIP_Cuts_Implied                        1
CPXPARAM_MIP_Limits_GomoryCand                   800
CPXPARAM_MIP_Cuts_Gomory                         -1
CPXPARAM_MIP_Cuts_PathCut                        1
CPXPARAM_MIP_Cuts_MIRCut                         2
CPXPARAM_MIP_Cuts_Disjunctive                    2
CPXPARAM_Emphasis_MIP                            1
CPXPARAM_MIP_Strategy_BBInterval                 4
CPXPARAM_TimeLimit                               5
Tried aggregator 1 time.
MIP Presolve eliminated 595 rows and 0 columns.
MIP Presolve added 1190 rows and 0 columns.
MIP Presolve modified 10 coefficients.
Reduced MIP has 2515 rows, 2985 columns, and 7755 nonzeros.
Reduced MIP has 1195 binaries, 0 generals, 0 SOSs, and 0 indicators.
Presolve time = 0.00 sec. (4.53 ticks)
Probing fixed 0 vars, tightened 5487 bounds.
Probing time = 0.01 sec. (18.38 ticks)
Tried aggregator 2 times.
Detecting symmetries...
MIP Presolve modified 1206 coefficients.
Aggregator did 10 substitutions.
Reduced MIP has 2505 rows, 2975 columns, and 7735 nonzeros.
Reduced MIP has 1195 binaries, 0 generals, 0 SOSs, and 0 indicators.
Presolve time = 0.00 sec. (6.66 ticks)
Probing fixed 0 vars, tightened 2401 bounds.
Probing time = 0.00 sec. (6.41 ticks)
Clique table members: 190.
MIP emphasis: integer feasibility.
MIP search method: dynamic search.
Parallel mode: deterministic, using up to 8 threads.
Root relaxation solution time = 0.01 sec. (9.71 ticks)

        Nodes                                         Cuts/
   Node  Left     Objective  IInf  Best Integer    Best Bound    ItCnt     Gap

      0     0   348385.3466   472                 348385.3466      882         
      0     0   583577.4049   435                   Cuts: 726     1819         
      0     0   818290.4051   692                   Cuts: 726     2653         
*     0+    0                       1.01740e+07   818290.4051            91.96%
*     0+    0                      7973370.0000   818290.4051            89.74%
      0     0   947113.9594   686  7973370.0000     Cuts: 726     3332   88.12%
Detecting symmetries...
      0     2   947113.9594   686  7973370.0000   949700.7247     3332   88.09%
Elapsed time = 0.41 sec. (613.28 ticks, tree = 0.02 MB, solutions = 2)
    429   393   999212.8472   595  7973370.0000   949700.7247     7651   88.09%
   1024   831  1146818.7408   469  7973370.0000   949700.7247    13905   88.09%

Performing restart 1

Repeating presolve.
Tried aggregator 1 time.
MIP Presolve modified 1156 coefficients.
Reduced MIP has 2505 rows, 2975 columns, and 7735 nonzeros.
Reduced MIP has 1195 binaries, 0 generals, 0 SOSs, and 0 indicators.
Presolve time = 0.00 sec. (3.78 ticks)
Tried aggregator 1 time.
MIP Presolve modified 1023 coefficients.
Reduced MIP has 2505 rows, 2975 columns, and 7735 nonzeros.
Reduced MIP has 1195 binaries, 0 generals, 0 SOSs, and 0 indicators.
Presolve time = 0.00 sec. (5.12 ticks)
Represolve time = 0.02 sec. (18.91 ticks)
   1738     0  1070214.8248   702  7973370.0000     Cuts: 726    27978   86.58%
   1738     0  1165198.3647   693  7973370.0000     Cuts: 726    28821   85.39%
   1738     0  1234987.6657   687  7973370.0000     Cuts: 726    29661   84.51%
   1738     2  1234987.6657   687  7973370.0000  1234987.6657    29661   84.51%
   1756    20  1328013.4883   568  7973370.0000  1235146.5611    30362   84.51%
   1778    42  1340941.5650   524  7973370.0000  1235146.5611    30893   84.51%
   1820    82  1380459.1774   465  7973370.0000  1235146.5611    31930   84.51%
   1826     8  1329154.1230   681  7973370.0000  1235743.5270    30010   84.50%
   1838    99  1510639.6376   526  7973370.0000  1235743.5270    36818   84.50%
   1882   142  1573207.4245   419  7973370.0000  1267254.4862    48935   84.11%
*  2129+  189                      1821555.0000  1311144.0615            28.02%
   2466   488  1523679.5920   515  1821555.0000  1311144.0615    84828   28.02%
Elapsed time = 3.90 sec. (5447.46 ticks, tree = 0.62 MB, solutions = 3)
*  3290+ 1088                      1774968.0000  1311144.0615            26.13%
*  3299+ 1088                      1726567.0000  1311144.0615            24.06%
*  3331+ 1234                      1723207.0000  1311144.0615            23.91%
*  3343+ 1234                      1704291.0000  1311144.0615            23.07%
   3401  1247  1561644.8479   139  1704291.0000  1311144.0615   124651   23.07%
*  3411+ 1350                      1677992.0000  1311144.0615            21.86%
*  3417+ 1350                      1670014.0000  1311144.0615            21.49%
*  3418+ 1350                      1646747.0000  1311144.0615            20.38%
*  3612+ 1411                      1564251.0000  1311144.0615            16.18%
*  3619+ 1411                      1526210.0000  1311144.0615            14.09%
*  3636+ 1411                      1524176.0000  1311144.0615            13.98%
*  3646+ 1411                      1519456.0000  1311144.0615            13.71%
*  3671+ 1411                      1518354.0000  1311144.0615            13.65%
*  3679+ 1411                      1517565.0000  1311144.0615            13.60%

Clique cuts applied:  1
Cover cuts applied:  23
Implied bound cuts applied:  11
Flow cuts applied:  1138
Mixed integer rounding cuts applied:  1356
Flow path cuts applied:  78
Multi commodity flow cuts applied:  24
Lift and project cuts applied:  20
Disjunctive cuts applied:  0
Cone linearizations applied:  0

Root node processing (before b&c):
  Real time             =    0.40 sec. (611.17 ticks)
Parallel b&c, 8 threads:
  Real time             =    4.60 sec. (6428.58 ticks)
  Sync time (average)   =    0.34 sec.
  Wait time (average)   =    0.00 sec.
                          ------------
Total (root+branch&cut) =    5.01 sec. (7039.75 ticks)
Gap: 13.6%
Upper bound: 1.51756e+06
Lower bound: 1.31114e+06
End of CPLEX run. Time: 5.00936 seconds
